n_res = 4;
rc = [ 24, 30, 25, 25 ];
n_tasks = 30;
d = [ 6, 8, 5, 9, 7, 8, 10, 6, 1, 10, 6, 3, 6, 8, 2, 8, 6, 9, 6, 9, 10, 3, 4, 10, 4, 9, 9, 3, 9, 1 ];
rr = [| 5, 6, 7, 9, 9, 7, 4, 7, 9, 7, 4, 6, 2, 2, 4, 3, 6, 8, 3, 1, 4, 1, 4, 8, 2, 9, 5, 4, 5, 9
      | 7, 9, 10, 9, 8, 9, 9, 9, 2, 1, 7, 6, 5, 4, 4, 10, 7, 10, 8, 8, 3, 1, 9, 2, 10, 9, 8, 9, 7, 7
      | 7, 5, 5, 10, 4, 2, 2, 10, 2, 8, 9, 1, 6, 1, 1, 4, 3, 6, 6, 5, 4, 10, 8, 1, 2, 10, 6, 8, 7, 3
      | 2, 6, 9, 9, 5, 5, 9, 1, 6, 3, 6, 5, 3, 10, 8, 10, 7, 1, 9, 5, 4, 3, 1, 7, 8, 8, 9, 2, 9, 3 |];
suc = [ { 2 }, 
        { 3 }, 
        { 4 }, 
        { 5 }, 
        { 6 }, 
        { 7 }, 
        { 8 }, 
        { 9 }, 
        { 10 }, 
        { 11 }, 
        { 12 }, 
        { 13 }, 
        { 14 }, 
        { 15 }, 
        { 16 }, 
        { 17 }, 
        { 18 }, 
        { 19 }, 
        { 20 }, 
        { 21 }, 
        { 22 }, 
        { 23 }, 
        { 24 }, 
        { 25 }, 
        { 26 }, 
        { 27 }, 
        { 28 }, 
        { 29 }, 
        { 30 }, 
        {  }]; 
